(declare-const __VERIFIER_assert__cond___7 Int)
(declare-const __VERIFIER_assert__cond___3 Int)
(declare-const |phi___tmp_383_0:405:516:939| Int)
(declare-const |main____CPAchecker_TMP_4':364:389:934:967| Int)
(declare-const |havoc:9:63:145:225:233:536:959| Int)
(declare-const __VERIFIER_assert__cond___18 Int)
(declare-const |main____CPAchecker_TMP_0___0':149:172:179:232:535:958| Int)
(declare-const |phi___VERIFIER_assert__cond___11:399:522:945| Int)
(declare-const havoc Int)
(declare-const |phi___tmp_259_0:404:517:940| Int)
(declare-const |havoc:28:64:341:391:936:969| Int)
(declare-const |main__t':147:385:930:963| Int)
(declare-const __VERIFIER_assert__cond___15 Int)
(declare-const |__VERIFIER_assert__cond___7':367:383:928:961| Int)
(declare-const __VERIFIER_assert__cond___8 Int)
(declare-const |main____CPAchecker_TMP_6':369:386:931:964| Int)
(declare-const |havoc:3:62:938| Int)
(declare-const |main____CPAchecker_TMP_3':363:390:935:968| Int)
(declare-const |phi_main____CPAchecker_TMP_0:402:519:942| Int)
(declare-const __VERIFIER_assert__cond___11 Int)
(declare-const |main__t':147:167:174:227:530:953| Int)
(declare-const |havoc:35:66:816:937:970| Int)
(declare-const |phi___VERIFIER_assert__cond___16:395:526:949| Int)
(declare-const |__VERIFIER_assert__cond___3':365:388:933:966| Int)
(declare-const |__VERIFIER_assert__cond___8':368:384:929:962| Int)
(declare-const __VERIFIER_assert__cond___4 Int)
(declare-const |phi___VERIFIER_assert__cond___17:394:527:950| Int)
(declare-const |phi___VERIFIER_assert__cond___12:398:523:946| Int)
(declare-const main____CPAchecker_TMP_4 Int)
(declare-const |__VERIFIER_assert__cond___18':151:171:178:231:534:957| Int)
(declare-const __VERIFIER_assert__cond___0 Int)
(declare-const __VERIFIER_assert__cond___12 Int)
(declare-const __VERIFIER_assert__cond Int)
(declare-const main____CPAchecker_TMP_3 Int)
(declare-const |__tmp_383_0':146:170:177:230:533:956| Int)
(declare-const |phi___VERIFIER_assert__cond:401:520:943| Int)
(declare-const |phi_main__t:403:518:941| Int)
(declare-const |__VERIFIER_assert__cond___4':366:387:932:965| Int)
(declare-const main____CPAchecker_TMP_6 Int)
(declare-const |phi_main____CPAchecker_TMP_0___0:397:524:947| Int)
(declare-const |phi___VERIFIER_assert__cond___15:396:525:948| Int)
(declare-const |K:165:166:173:226:529:952| Int)
(declare-const __tmp_383_0 Int)
(declare-const |phi___VERIFIER_assert__cond___18:393:528:951| Int)
(declare-const main____CPAchecker_TMP_0___0 Int)
(declare-const |phi___VERIFIER_assert__cond___0:400:521:944| Int)
(declare-const __VERIFIER_assert__cond___17 Int)
(declare-const |K:381:382:927:960| Int)
(declare-const |__VERIFIER_assert__cond___17':150:168:175:228:531:954| Int)
(declare-const __VERIFIER_assert__cond___16 Int)
(declare-const |main____CPAchecker_TMP_0':148:169:176:229:532:955| Int)
(assert (and (<= (+ (- havoc) 1) 0) (not (= (+ (- havoc) 1) 0))
               (or (and (not (= |havoc:3:62:938| 0))
                          (not (= (ite (<= (+ (- havoc) 1) 0) 1 0) 0))
                          (= (+ (- |phi___tmp_383_0:405:516:939|) __tmp_383_0) 0)
                          (= (+ (- |phi___tmp_259_0:404:517:940|)
                                  |havoc:3:62:938|) 0)
                          (= (- |phi_main__t:403:518:941|) 0)
                          (= (+ (- |phi_main____CPAchecker_TMP_0:402:519:942|)
                                  |havoc:3:62:938|) 0)
                          (= (+ (- |phi___VERIFIER_assert__cond:401:520:943|)
                                  1) 0)
                          (= (+ (- |phi___VERIFIER_assert__cond___0:400:521:944|)
                                  (ite (<= (+ (- havoc) 1) 0) 1 0)) 0)
                          (= (+ (- |phi___VERIFIER_assert__cond___11:399:522:945|)
                                  __VERIFIER_assert__cond___11) 0)
                          (= (+ (- |phi___VERIFIER_assert__cond___12:398:523:946|)
                                  __VERIFIER_assert__cond___12) 0)
                          (= (+ (- |phi_main____CPAchecker_TMP_0___0:397:524:947|)
                                  main____CPAchecker_TMP_0___0) 0)
                          (= (+ (- |phi___VERIFIER_assert__cond___15:396:525:948|)
                                  __VERIFIER_assert__cond___15) 0)
                          (= (+ (- |phi___VERIFIER_assert__cond___16:395:526:949|)
                                  __VERIFIER_assert__cond___16) 0)
                          (= (+ (- |phi___VERIFIER_assert__cond___17:394:527:950|)
                                  __VERIFIER_assert__cond___17) 0)
                          (= (+ (- |phi___VERIFIER_assert__cond___18:393:528:951|)
                                  __VERIFIER_assert__cond___18) 0))
                     (and (= |havoc:3:62:938| 0)
                            (not (= (ite (<= (+ (- havoc) 1) 0) 1 0) 0))
                            (or (not (<= (- |K:165:166:173:226:529:952|) 0))
                                  (= (+ |main__t':147:167:174:227:530:953|
                                          (- |K:165:166:173:226:529:952|)) 0))
                            (or (not (and (<= (- |K:165:166:173:226:529:952|) 0)
                                            (<= |K:165:166:173:226:529:952| 0)))
                                  (= (+ |__VERIFIER_assert__cond___17':150:168:175:228:531:954|
                                          (- __VERIFIER_assert__cond___17)) 0))
                            (or (not (<= (+ (- |K:165:166:173:226:529:952|) 1) 0))
                                  (= (+ |__VERIFIER_assert__cond___17':150:168:175:228:531:954|
                                          -1) 0))
                            (or (not (and (<= (- |K:165:166:173:226:529:952|) 0)
                                            (<= |K:165:166:173:226:529:952| 0)))
                                  (= (+ |main____CPAchecker_TMP_0':148:169:176:229:532:955|
                                          (- |havoc:3:62:938|)) 0))
                            (or (not (<= (+ (- |K:165:166:173:226:529:952|) 1) 0))
                                  (= |main____CPAchecker_TMP_0':148:169:176:229:532:955| 0))
                            (or (not (and (<= (- |K:165:166:173:226:529:952|) 0)
                                            (<= |K:165:166:173:226:529:952| 0)))
                                  (= (+ |__tmp_383_0':146:170:177:230:533:956|
                                          (- |havoc:3:62:938|)) 0))
                            (or (not (<= (+ (- |K:165:166:173:226:529:952|) 1) 0))
                                  (= |__tmp_383_0':146:170:177:230:533:956| 0))
                            (or (not (and (<= (- |K:165:166:173:226:529:952|) 0)
                                            (<= |K:165:166:173:226:529:952| 0)))
                                  (= (+ |__VERIFIER_assert__cond___18':151:171:178:231:534:957|
                                          (- __VERIFIER_assert__cond___18)) 0))
                            (or (not (<= (+ (- |K:165:166:173:226:529:952|) 1) 0))
                                  (= (+ |__VERIFIER_assert__cond___18':151:171:178:231:534:957|
                                          -1) 0))
                            (or (not (and (<= (- |K:165:166:173:226:529:952|) 0)
                                            (<= |K:165:166:173:226:529:952| 0)))
                                  (= (+ |main____CPAchecker_TMP_0___0':149:172:179:232:535:958|
                                          (- main____CPAchecker_TMP_0___0)) 0))
                            (or (not (<= (+ (- |K:165:166:173:226:529:952|) 1) 0))
                                  (= |main____CPAchecker_TMP_0___0':149:172:179:232:535:958| 0))
                            (or (and (= |K:165:166:173:226:529:952| 0)
                                       (= (+ (- |__VERIFIER_assert__cond___18':151:171:178:231:534:957|)
                                               __VERIFIER_assert__cond___18) 0)
                                       (= (+ (- |__VERIFIER_assert__cond___17':150:168:175:228:531:954|)
                                               __VERIFIER_assert__cond___17) 0)
                                       (= (+ (- |main____CPAchecker_TMP_0___0':149:172:179:232:535:958|)
                                               main____CPAchecker_TMP_0___0) 0)
                                       (= (+ (- |main____CPAchecker_TMP_0':148:169:176:229:532:955|)
                                               |havoc:3:62:938|) 0)
                                       (= (- |main__t':147:167:174:227:530:953|) 0)
                                       (= (+ (- |__tmp_383_0':146:170:177:230:533:956|)
                                               |havoc:3:62:938|) 0))
                                  (and (<= (+ (- |K:165:166:173:226:529:952|)
                                                1) 0) (= |havoc:3:62:938| 0)
                                         (= |havoc:3:62:938| 0)
                                         (<= (+ (- havoc) 3) 0)
                                         (= (+ |__VERIFIER_assert__cond___18':151:171:178:231:534:957|
                                                 -1) 0)
                                         (= (+ |__VERIFIER_assert__cond___17':150:168:175:228:531:954|
                                                 -1) 0)
                                         (= |main____CPAchecker_TMP_0':148:169:176:229:532:955| 0)
                                         (= |main____CPAchecker_TMP_0___0':149:172:179:232:535:958| 0)
                                         (= |__tmp_383_0':146:170:177:230:533:956| 0)
                                         (<= (+ |main__t':147:167:174:227:530:953|
                                                  (- havoc) 2) 0)
                                         (<= (+ (- |main__t':147:167:174:227:530:953|)
                                                  1) 0)))
                            (<= (- |K:165:166:173:226:529:952|) 0)
                            (= |__tmp_383_0':146:170:177:230:533:956| 0)
                            (= |main____CPAchecker_TMP_0':148:169:176:229:532:955| 0)
                            (<= (- |main__t':147:167:174:227:530:953|) 0)
                            (< (+ (- havoc) 1) 0)
                            (= |__tmp_383_0':146:170:177:230:533:956| 0)
                            (= |main____CPAchecker_TMP_0':148:169:176:229:532:955| 0)
                            (not (= (+ |main__t':147:167:174:227:530:953|
                                         (- havoc) 2) 0))
                            (not (= |havoc:9:63:145:225:233:536:959| 0))
                            (not (= (ite (<= (+ (- |main__t':147:167:174:227:530:953|)
                                                  -1) 0)
                                         1 0) 0))
                            (not (= (ite (<= (+ |main__t':147:167:174:227:530:953|
                                                  (- havoc) 2) 0)
                                         1 0) 0))
                            (= (+ |__tmp_383_0':146:170:177:230:533:956|
                                    (- |phi___tmp_383_0:405:516:939|)) 0)
                            (= (+ |havoc:9:63:145:225:233:536:959|
                                    (- |phi___tmp_259_0:404:517:940|)) 0)
                            (= (+ |main__t':147:167:174:227:530:953|
                                    (- |phi_main__t:403:518:941|) 1) 0)
                            (= (+ |__tmp_383_0':146:170:177:230:533:956|
                                    (- |phi_main____CPAchecker_TMP_0:402:519:942|)) 0)
                            (= (+ __VERIFIER_assert__cond
                                    (- |phi___VERIFIER_assert__cond:401:520:943|)) 0)
                            (= (+ __VERIFIER_assert__cond___0
                                    (- |phi___VERIFIER_assert__cond___0:400:521:944|)) 0)
                            (= (+ (- |phi___VERIFIER_assert__cond___11:399:522:945|)
                                    1) 0)
                            (= (+ (- |phi___VERIFIER_assert__cond___12:398:523:946|)
                                    (ite (<= (+ (- havoc) 1) 0) 1 0)) 0)
                            (= (+ |havoc:9:63:145:225:233:536:959|
                                    (- |phi_main____CPAchecker_TMP_0___0:397:524:947|)) 0)
                            (= (+ (ite (<= (+ (- |main__t':147:167:174:227:530:953|)
                                                -1) 0)
                                       1 0)
                                    (- |phi___VERIFIER_assert__cond___15:396:525:948|)) 0)
                            (= (+ (ite (<= (+ |main__t':147:167:174:227:530:953|
                                                (- havoc) 2) 0)
                                       1 0)
                                    (- |phi___VERIFIER_assert__cond___16:395:526:949|)) 0)
                            (= (+ |__VERIFIER_assert__cond___17':150:168:175:228:531:954|
                                    (- |phi___VERIFIER_assert__cond___17:394:527:950|)) 0)
                            (= (+ |__VERIFIER_assert__cond___18':151:171:178:231:534:957|
                                    (- |phi___VERIFIER_assert__cond___18:393:528:951|)) 0)))
               (or (not (and (<= (- |K:381:382:927:960|) 0)
                               (<= |K:381:382:927:960| 0)))
                     (= (+ (- __VERIFIER_assert__cond___7)
                             |__VERIFIER_assert__cond___7':367:383:928:961|) 0))
               (or (not (<= (+ (- |K:381:382:927:960|) 1) 0))
                     (= (+ |__VERIFIER_assert__cond___7':367:383:928:961| -1) 0))
               (or (not (and (<= (- |K:381:382:927:960|) 0)
                               (<= |K:381:382:927:960| 0)))
                     (= (+ (- __VERIFIER_assert__cond___8)
                             |__VERIFIER_assert__cond___8':368:384:929:962|) 0))
               (or (not (<= (+ (- |K:381:382:927:960|) 1) 0))
                     (= (+ |__VERIFIER_assert__cond___8':368:384:929:962| -1) 0))
               (or (not (<= (- |K:381:382:927:960|) 0))
                     (<= (+ |main__t':147:385:930:963|
                              (* -2 |K:381:382:927:960|)
                              (- |phi_main__t:403:518:941|) -1) 0))
               (or (not (<= (- |K:381:382:927:960|) 0))
                     (<= (+ |main__t':147:385:930:963|
                              (* 2 |K:381:382:927:960|)
                              (- |phi_main__t:403:518:941|)
                              (- (* |K:381:382:927:960| havoc)) -1) 0))
               (or (not (<= (- |K:381:382:927:960|) 0))
                     (<= (+ (- |main__t':147:385:930:963|)
                              |K:381:382:927:960| |phi_main__t:403:518:941| 1) 0))
               (or (and (= |K:381:382:927:960| 0)
                          (= (+ (- |main____CPAchecker_TMP_6':369:386:931:964|)
                                  main____CPAchecker_TMP_6) 0)
                          (= (+ __VERIFIER_assert__cond___8
                                  (- |__VERIFIER_assert__cond___8':368:384:929:962|)) 0)
                          (= (+ __VERIFIER_assert__cond___7
                                  (- |__VERIFIER_assert__cond___7':367:383:928:961|)) 0)
                          (= (+ (- |__VERIFIER_assert__cond___4':366:387:932:965|)
                                  __VERIFIER_assert__cond___4) 0)
                          (= (+ (- |__VERIFIER_assert__cond___3':365:388:933:966|)
                                  __VERIFIER_assert__cond___3) 0)
                          (= (+ (- |main____CPAchecker_TMP_4':364:389:934:967|)
                                  main____CPAchecker_TMP_4) 0)
                          (= (+ (- |main____CPAchecker_TMP_3':363:390:935:968|)
                                  main____CPAchecker_TMP_3) 0)
                          (= (+ (- |main__t':147:385:930:963|)
                                  |phi_main__t:403:518:941| 1) 0))
                     (and (<= (+ (- |K:381:382:927:960|) 1) 0)
                            (<= (+ |phi_main__t:403:518:941| (- havoc) 3) 0)
                            (<= (- |phi_main__t:403:518:941|) 0)
                            (= (+ |__VERIFIER_assert__cond___8':368:384:929:962|
                                    -1) 0)
                            (= (+ |__VERIFIER_assert__cond___7':367:383:928:961|
                                    -1) 0)
                            (<= (+ |main__t':147:385:930:963| (- havoc) 1) 0)
                            (<= (+ (- |main__t':147:385:930:963|) 2) 0)))
               (<= (- |K:381:382:927:960|) 0)
               (< (- |main__t':147:385:930:963|) 0) (< (+ (- havoc) 1) 0)
               (not (= (+ |main__t':147:385:930:963| (- havoc) 1) 0))
               (not (= |havoc:28:64:341:391:936:969| 0))
               (not (= |havoc:35:66:816:937:970| 0))
               (not (= (ite (<= (- |main__t':147:385:930:963|) 0) 1 0) 0))
               (not (= (ite (<= (+ |main__t':147:385:930:963| (- havoc) 1) 0)
                            1 0) 0))
               (= (+ |main__t':147:385:930:963| (- havoc) 2) 0)
               (= (ite (<= (+ (- |main__t':147:385:930:963|) -1) 0) 1 0) 0)))
(check-sat)
